benchmark/results/graph__10-1000-0.10-03_4/graph__10-1000-0.10-03_4_Quinton_Benders_aux.lp
\ This file has been generated by DOcplex
\ ENCODING=ISO-8859-1
\Problem name: Quinton Benders_auxiliary_sub

Minimize
 obj: 0.001013276876 pi_nr_a0 + 0.000986886413 pi_nr_a1
      + 0.001139893005 pi_nr_a2 + 0.001407349433 pi_nr_a3
      + 0.001490312966 pi_nr_a4 + 0.001101532796 pi_nr_a5
      + 0.000867302689 pi_nr_a6 + 0.001509899253 pi_nr_a7
      + 0.001573840355 pi_nr_a8 + 0.001342649197 pi_nr_a9 + 2 pi_p_a1_a0
      + pi_p_a1_a2 + pi_p_a2_a7 + pi_p_a2_a8 + pi_p_a9_a6 + pi_p_a1_a1
      + pi_p_a4_a8 + pi_p_a4_a7 + 2449.212733283097 pi_d_a0_a1_proc_2
      + 128.593976713746 pi_d_a0_a1_proc_0 + 2388.649684242876 pi_d_a1_a0_proc_2
      + 68.030927673524 pi_d_a1_a0_proc_0 + 228.305008720622 pi_d_a0_a2_proc_2
      + 233.195195298659 pi_d_a0_a2_proc_0 + 2271.805187154544 pi_d_a2_a0_proc_2
      + 2276.695373732581 pi_d_a2_a0_proc_0
      + 2350.136377464743 pi_d_a0_a3_proc_2
      + 2501.745752464743 pi_d_a0_a3_proc_0 + 3.254247535257 pi_d_a3_a0_proc_2
      + 154.863622535257 pi_d_a3_a0_proc_0 + 154.495360437783 pi_d_a0_a4_proc_0
      + 3.004592921584 pi_d_a4_a0_proc_0 + 2346.505949992113 pi_d_a0_a5_proc_2
      + 153.603515957692 pi_d_a5_a0_proc_2 + 85.776594940573 pi_d_a0_a6_proc_0
      + 71.723358418794 pi_d_a6_a0_proc_0 + 2351.106204743669 pi_d_a0_a7_proc_2
      + 157.660824614184 pi_d_a0_a7_proc_0 + 2349.784464565499 pi_d_a7_a0_proc_2
      + 156.339084436013 pi_d_a7_a0_proc_0 + 1889.310774755662 pi_d_a0_a8_proc_0
      + 14.142350234092 pi_d_a8_a0_proc_0 + 2434.485137525981 pi_d_a0_a9_proc_2
      + 116.328838553884 pi_d_a0_a9_proc_0 + 2388.671161446116 pi_d_a9_a0_proc_2
      + 70.514862474019 pi_d_a9_a0_proc_0 + 320.370230171761 pi_d_a1_a2_proc_2
      + 195.641753461712 pi_d_a1_a2_proc_0 + 1491.639926701999 pi_d_a1_a2_proc_1
      + 2321.602289948112 pi_d_a2_a1_proc_2
      + 2196.873813238064 pi_d_a2_a1_proc_0
      + 3492.871986478351 pi_d_a2_a1_proc_1
      + 1535.285624691461 pi_d_a1_a3_proc_2
      + 1557.276336403375 pi_d_a1_a3_proc_0 + 959.967324553246 pi_d_a3_a1_proc_2
      + 981.958036265160 pi_d_a3_a1_proc_0 + 37.918155040900 pi_d_a1_a4_proc_0
      + 2.206795987003 pi_d_a4_a1_proc_0 + 1257.237869631994 pi_d_a1_a5_proc_2
      + 2352.703603923532 pi_d_a1_a5_proc_1
      + 1384.733920562517 pi_d_a5_a1_proc_2
      + 2480.199654854055 pi_d_a5_a1_proc_1 + 2.229319918974 pi_d_a1_a6_proc_0
      + 37.895631108929 pi_d_a6_a1_proc_0 + 2487.358400111998 pi_d_a1_a7_proc_2
      + 164.294356694426 pi_d_a1_a7_proc_0 + 2555.792953198755 pi_d_a1_a7_proc_1
      + 2355.394593441878 pi_d_a7_a1_proc_2 + 32.330550024307 pi_d_a7_a1_proc_0
      + 2423.829146528636 pi_d_a7_a1_proc_1
      + 1281.221164584408 pi_d_a1_a8_proc_0
      + 2007.461856483447 pi_d_a1_a8_proc_1 + 504.856958073883 pi_d_a8_a1_proc_0
      + 1231.097649972922 pi_d_a8_a1_proc_1
      + 2499.879916946769 pi_d_a1_a9_proc_2 + 52.104954686587 pi_d_a1_a9_proc_0
      + 2465.138706270035 pi_d_a9_a1_proc_2 + 17.363744009852 pi_d_a9_a1_proc_0
      + 47.542562602108 pi_d_a2_a3_proc_2 + 2395.042217461410 pi_d_a2_a3_proc_0
      + 109.958164991793 pi_d_a3_a2_proc_2 + 2457.457819851095 pi_d_a3_a2_proc_0
      + 1097.861014217138 pi_d_a2_a4_proc_0
      + 1255.529601454735 pi_d_a4_a2_proc_0 + 189.255739260530 pi_d_a2_a5_proc_2
      + 2465.840862880889 pi_d_a2_a5_proc_1 + 114.963829283174 pi_d_a5_a2_proc_2
      + 2391.548952903533 pi_d_a5_a2_proc_1
      + 2349.438669837118 pi_d_a2_a6_proc_0 + 3.951945834755 pi_d_a6_a2_proc_0
      + 2470.719330315827 pi_d_a2_a7_proc_2
      + 2473.164230045644 pi_d_a2_a7_proc_0
      + 3720.273272731407 pi_d_a2_a7_proc_1 + 34.281441587242 pi_d_a7_a2_proc_2
      + 36.726341317059 pi_d_a7_a2_proc_0 + 1283.835384002821 pi_d_a7_a2_proc_1
      + 1979.162670317204 pi_d_a2_a8_proc_0
      + 1561.013808397677 pi_d_a2_a8_proc_1
      + 2120.181116985056 pi_d_a8_a2_proc_0
      + 1702.032255065529 pi_d_a8_a2_proc_1
      + 2480.360130271661 pi_d_a2_a9_proc_2
      + 2358.094111158866 pi_d_a2_a9_proc_0 + 146.906271294337 pi_d_a9_a2_proc_2
      + 24.640252181543 pi_d_a9_a2_proc_0 + 4.885737574578 pi_d_a3_a4_proc_0
      + 2495.223684066054 pi_d_a4_a3_proc_0 + 40.126194000262 pi_d_a3_a5_proc_2
      + 117.373803668276 pi_d_a5_a3_proc_2 + 2341.230515350397 pi_d_a3_a6_proc_0
      + 158.878906290236 pi_d_a6_a3_proc_0 + 2354.570912342386 pi_d_a3_a7_proc_2
      + 2503.735000494165 pi_d_a3_a7_proc_0 + 3.710288685517 pi_d_a7_a3_proc_2
      + 152.874376837297 pi_d_a7_a3_proc_0 + 59.681724002482 pi_d_a3_a8_proc_0
      + 4186.380869268538 pi_d_a8_a3_proc_0 + 641.385959852542 pi_d_a3_a9_proc_2
      + 665.839129161711 pi_d_a3_a9_proc_0 + 1839.160870838290 pi_d_a9_a3_proc_2
      + 1863.614040147459 pi_d_a9_a3_proc_0 + 1.021484359205 pi_d_a4_a6_proc_0
      - 0.021484359205 pi_d_a6_a4_proc_0 + 113.562582325029 pi_d_a4_a7_proc_0
      + 43.937373365801 pi_d_a7_a4_proc_0 + 1746.953171630387 pi_d_a4_a8_proc_0
      + 22.470733932567 pi_d_a4_a9_proc_0 + 7.873013735969 pi_d_a9_a4_proc_0
      + 2466.588674885068 pi_d_a5_a7_proc_2
      + 3640.338655061946 pi_d_a5_a7_proc_1 + 38.411367092639 pi_d_a7_a5_proc_2
      + 1212.161347269517 pi_d_a7_a5_proc_1
      + 2991.679981803362 pi_d_a5_a8_proc_1 + 119.757427257080 pi_d_a8_a5_proc_1
      + 2348.054727067455 pi_d_a5_a9_proc_2 + 279.210944573180 pi_d_a9_a5_proc_2
      + 0.041314190294 pi_d_a6_a7_proc_0 + 157.458641500536 pi_d_a7_a6_proc_0
      + 1745.953129653816 pi_d_a6_a8_proc_0 + 1.000041976571 pi_d_a8_a6_proc_0
      + 7.335112518731 pi_d_a6_a9_proc_0 + 23.008635149805 pi_d_a9_a6_proc_0
      + 1666.963550513884 pi_d_a7_a8_proc_0
      + 2344.315111858399 pi_d_a7_a8_proc_1 + 236.489576807333 pi_d_a8_a7_proc_0
      + 913.841138151849 pi_d_a8_a7_proc_1 + 2479.546870046263 pi_d_a7_a9_proc_2
      + 158.945284225946 pi_d_a7_a9_proc_0 + 2348.500004953737 pi_d_a9_a7_proc_2
      + 27.898419133420 pi_d_a9_a7_proc_0 + 1775.296919298924 pi_d_a8_a9_proc_0
      + pi_d_a9_a8_proc_0 + 0.937500018626 pi_y2_a0_proc_0
      + 0.062499981374 pi_y2_a0_proc_2 + 0.984375019558 pi_y2_a1_proc_0
      + 0.009779281914 pi_y2_a1_proc_1 + 0.005845698528 pi_y2_a1_proc_2
      + 0.060546878725 pi_y2_a2_proc_0 + 0.000000305474 pi_y2_a2_proc_1
      + 0.939452815801 pi_y2_a2_proc_2 + 0.001953106374 pi_y2_a3_proc_0
      + 0.998046893626 pi_y2_a3_proc_2 + pi_y2_a4_proc_0
      + 0.060546892695 pi_y2_a5_proc_1 + 0.939453107305 pi_y2_a5_proc_2
      + pi_y2_a6_proc_0 + 0.937500017695 pi_y2_a7_proc_0
      + 0.001953106374 pi_y2_a7_proc_1 + 0.060546875931 pi_y2_a7_proc_2
      + 0.302734356378 pi_y2_a8_proc_0 + 0.697265643622 pi_y2_a8_proc_1
      + 0.988281250931 pi_y2_a9_proc_0 + 0.011718749069 pi_y2_a9_proc_2
Subject To
 c1: 0.001025641026 pi_nr_a0 + 0.000985221675 pi_nr_a1 + 0.001128668172 pi_nr_a2
     + 0.001408450704 pi_nr_a3 + 0.001490312966 pi_nr_a4
     + 0.001114827202 pi_nr_a5 + 0.000867302689 pi_nr_a6
     + 0.001555209953 pi_nr_a7 + 0.001869158879 pi_nr_a8
     + 0.001342281879 pi_nr_a9 + 2 pi_p_a1_a0 + pi_p_a1_a2 + pi_p_a2_a7
     + pi_p_a2_a8 + pi_p_a9_a6 + pi_p_a1_a1 + pi_p_a4_a8 + pi_p_a4_a7
     + 2503 pi_d_a0_a1_proc_2 - pi_d_a0_a1_proc_0 + 2506 pi_d_a1_a0_proc_2
     + 2 pi_d_a1_a0_proc_0 - 2 pi_d_a0_a2_proc_2 - 2 pi_d_a0_a2_proc_0
     + 2507 pi_d_a2_a0_proc_2 + 2507 pi_d_a2_a0_proc_0 + 2503 pi_d_a0_a3_proc_2
     + 2503 pi_d_a0_a3_proc_0 + 2 pi_d_a3_a0_proc_2 + 2 pi_d_a3_a0_proc_0
     - 2 pi_d_a0_a4_proc_0 + 3 pi_d_a4_a0_proc_0 + 2503 pi_d_a0_a5_proc_2
     + 2 pi_d_a5_a0_proc_2 - pi_d_a0_a6_proc_0 + 2 pi_d_a6_a0_proc_0
     + 2503 pi_d_a0_a7_proc_2 - pi_d_a0_a7_proc_0 + 2506 pi_d_a7_a0_proc_2
     + 2 pi_d_a7_a0_proc_0 + 2503 pi_d_a0_a8_proc_0 + 2 pi_d_a8_a0_proc_0
     + 2503 pi_d_a0_a9_proc_2 - pi_d_a0_a9_proc_0 + 2506 pi_d_a9_a0_proc_2
     + 2 pi_d_a9_a0_proc_0 + 1252 pi_d_a1_a2_proc_1 + 2505 pi_d_a2_a1_proc_2
     + 2505 pi_d_a2_a1_proc_0 + 3757 pi_d_a2_a1_proc_1 + 2503 pi_d_a1_a3_proc_2
     + 2503 pi_d_a1_a3_proc_0 + 2 pi_d_a3_a1_proc_2 + 2 pi_d_a3_a1_proc_0
     + pi_d_a4_a1_proc_0 + 1252 pi_d_a1_a5_proc_1 + 2505 pi_d_a5_a1_proc_2
     + 3757 pi_d_a5_a1_proc_1 + pi_d_a1_a6_proc_0 + 2505 pi_d_a1_a7_proc_2
     + pi_d_a1_a7_proc_0 + 2505 pi_d_a1_a7_proc_1 + 2504 pi_d_a7_a1_proc_2
     + 2504 pi_d_a7_a1_proc_1 + 2505 pi_d_a1_a8_proc_0 + 2505 pi_d_a1_a8_proc_1
     + 2505 pi_d_a1_a9_proc_2 + pi_d_a1_a9_proc_0 + 2504 pi_d_a9_a1_proc_2
     + pi_d_a2_a3_proc_2 + 2505 pi_d_a2_a3_proc_0 + 2504 pi_d_a3_a2_proc_0
     + 2505 pi_d_a4_a2_proc_0 + pi_d_a2_a5_proc_2 + 2505 pi_d_a2_a5_proc_1
     + 2504 pi_d_a5_a2_proc_1 + 2504 pi_d_a2_a6_proc_0 + pi_d_a6_a2_proc_0
     + 2505 pi_d_a2_a7_proc_2 + 2505 pi_d_a2_a7_proc_0 + 3757 pi_d_a2_a7_proc_1
     + 1252 pi_d_a7_a2_proc_1 + 1253 pi_d_a2_a8_proc_0 + pi_d_a2_a8_proc_1
     + 3756 pi_d_a8_a2_proc_0 + 2504 pi_d_a8_a2_proc_1 + 2505 pi_d_a2_a9_proc_2
     + 2505 pi_d_a2_a9_proc_0 + 2505 pi_d_a4_a3_proc_0 + pi_d_a3_a5_proc_2
     + 2502 pi_d_a3_a6_proc_0 + 3 pi_d_a6_a3_proc_0 + 2505 pi_d_a3_a7_proc_2
     + 2505 pi_d_a3_a7_proc_0 + pi_d_a3_a8_proc_0 + 5008 pi_d_a8_a3_proc_0
     + pi_d_a3_a9_proc_2 + pi_d_a3_a9_proc_0 + 2504 pi_d_a9_a3_proc_2
     + 2504 pi_d_a9_a3_proc_0 + pi_d_a4_a6_proc_0 + pi_d_a4_a7_proc_0
     + 2505 pi_d_a4_a8_proc_0 + pi_d_a4_a9_proc_0 + 2505 pi_d_a5_a7_proc_2
     + 3757 pi_d_a5_a7_proc_1 + 1252 pi_d_a7_a5_proc_1 + 2505 pi_d_a5_a8_proc_1
     + 2505 pi_d_a5_a9_proc_2 + pi_d_a7_a6_proc_0 + 2504 pi_d_a6_a8_proc_0
     + pi_d_a8_a6_proc_0 + pi_d_a9_a6_proc_0 + 2504 pi_d_a7_a8_proc_0
     + 2504 pi_d_a7_a8_proc_1 + pi_d_a8_a7_proc_0 + pi_d_a8_a7_proc_1
     + 2504 pi_d_a7_a9_proc_2 + 2505 pi_d_a9_a7_proc_2 + pi_d_a9_a7_proc_0
     + 2504 pi_d_a8_a9_proc_0 + pi_d_a9_a8_proc_0 + pi_y2_a0_proc_0
     + pi_y2_a1_proc_0 + pi_y2_a2_proc_2 + pi_y2_a3_proc_2 + pi_y2_a4_proc_0
     + pi_y2_a5_proc_2 + pi_y2_a6_proc_0 + pi_y2_a7_proc_0 + pi_y2_a8_proc_1
     + pi_y2_a9_proc_0 = 0.000149700599
 c2: pi_nr_a0 + pi_nr_a1 + pi_nr_a2 + pi_nr_a3 + pi_nr_a4 + pi_nr_a5 + pi_nr_a6
     + pi_nr_a7 + pi_nr_a8 + pi_nr_a9 - pi_y1_a0 - pi_y1_a1 - pi_y1_a2
     - pi_y1_a3 - pi_y1_a4 - pi_y1_a5 - pi_y1_a6 - pi_y1_a7 - pi_y1_a8
     - pi_y1_a9 >= 1
 c3: - pi_p_a1_a0 + pi_p_a0_a5 + pi_d_a0_a1_proc_2 + pi_d_a0_a1_proc_0
     - pi_d_a1_a0_proc_2 - pi_d_a1_a0_proc_0 + pi_d_a0_a2_proc_2
     + pi_d_a0_a2_proc_0 - pi_d_a2_a0_proc_2 - pi_d_a2_a0_proc_0
     + pi_d_a0_a3_proc_2 + pi_d_a0_a3_proc_0 - pi_d_a3_a0_proc_2
     - pi_d_a3_a0_proc_0 + pi_d_a0_a4_proc_0 - pi_d_a4_a0_proc_0
     + pi_d_a0_a5_proc_2 - pi_d_a5_a0_proc_2 + pi_d_a0_a6_proc_0
     - pi_d_a6_a0_proc_0 + pi_d_a0_a7_proc_2 + pi_d_a0_a7_proc_0
     - pi_d_a7_a0_proc_2 - pi_d_a7_a0_proc_0 + pi_d_a0_a8_proc_0
     - pi_d_a8_a0_proc_0 + pi_d_a0_a9_proc_2 + pi_d_a0_a9_proc_0
     - pi_d_a9_a0_proc_2 - pi_d_a9_a0_proc_0 >= 0
 c4: 975 pi_p_a0_a5 + 975 pi_d_a0_a1_proc_0 + 975 pi_d_a0_a2_proc_0
     + 975 pi_d_a0_a3_proc_0 + 975 pi_d_a0_a4_proc_0 + 975 pi_d_a0_a6_proc_0
     + 975 pi_d_a0_a7_proc_0 + 975 pi_d_a0_a8_proc_0 + 975 pi_d_a0_a9_proc_0
     + pi_y1_a0 + pi_y2_a0_proc_0 >= 0
 c5: 1208 pi_p_a0_a5 + 1208 pi_d_a0_a1_proc_2 + 1208 pi_d_a0_a2_proc_2
     + 1208 pi_d_a0_a3_proc_2 + 1208 pi_d_a0_a5_proc_2 + 1208 pi_d_a0_a7_proc_2
     + 1208 pi_d_a0_a9_proc_2 + pi_y1_a0 + pi_y2_a0_proc_2 >= 0
 c6: pi_p_a1_a0 + pi_p_a1_a2 - pi_p_a8_a1 - pi_d_a0_a1_proc_2
     - pi_d_a0_a1_proc_0 + pi_d_a1_a0_proc_2 + pi_d_a1_a0_proc_0
     + pi_d_a1_a2_proc_2 + pi_d_a1_a2_proc_0 + pi_d_a1_a2_proc_1
     - pi_d_a2_a1_proc_2 - pi_d_a2_a1_proc_0 - pi_d_a2_a1_proc_1
     + pi_d_a1_a3_proc_2 + pi_d_a1_a3_proc_0 - pi_d_a3_a1_proc_2
     - pi_d_a3_a1_proc_0 + pi_d_a1_a4_proc_0 - pi_d_a4_a1_proc_0
     + pi_d_a1_a5_proc_2 + pi_d_a1_a5_proc_1 - pi_d_a5_a1_proc_2
     - pi_d_a5_a1_proc_1 + pi_d_a1_a6_proc_0 - pi_d_a6_a1_proc_0
     + pi_d_a1_a7_proc_2 + pi_d_a1_a7_proc_0 + pi_d_a1_a7_proc_1
     - pi_d_a7_a1_proc_2 - pi_d_a7_a1_proc_0 - pi_d_a7_a1_proc_1
     + pi_d_a1_a8_proc_0 + pi_d_a1_a8_proc_1 - pi_d_a8_a1_proc_0
     - pi_d_a8_a1_proc_1 + pi_d_a1_a9_proc_2 + pi_d_a1_a9_proc_0
     - pi_d_a9_a1_proc_2 - pi_d_a9_a1_proc_0 >= 0
 c7: 1015 pi_p_a1_a0 + 1015 pi_p_a1_a2 + 1015 pi_p_a1_a1
     + 1015 pi_d_a1_a0_proc_0 + 1015 pi_d_a1_a2_proc_0 + 1015 pi_d_a1_a3_proc_0
     + 1015 pi_d_a1_a4_proc_0 + 1015 pi_d_a1_a6_proc_0 + 1015 pi_d_a1_a7_proc_0
     + 1015 pi_d_a1_a8_proc_0 + 1015 pi_d_a1_a9_proc_0 + pi_y1_a1
     + pi_y2_a1_proc_0 >= 0
 c8: 1074 pi_p_a1_a0 + 1074 pi_p_a1_a2 + 1074 pi_p_a1_a1
     + 1074 pi_d_a1_a2_proc_1 + 1074 pi_d_a1_a5_proc_1 + 1074 pi_d_a1_a7_proc_1
     + 1074 pi_d_a1_a8_proc_1 + pi_y1_a1 + pi_y2_a1_proc_1 >= 0
 c9: 735 pi_p_a1_a0 + 735 pi_p_a1_a2 + 735 pi_p_a1_a1 + 735 pi_d_a1_a0_proc_2
     + 735 pi_d_a1_a2_proc_2 + 735 pi_d_a1_a3_proc_2 + 735 pi_d_a1_a5_proc_2
     + 735 pi_d_a1_a7_proc_2 + 735 pi_d_a1_a9_proc_2 + pi_y1_a1
     + pi_y2_a1_proc_2 >= 0
 c10: - pi_p_a1_a2 - pi_p_a3_a2 + pi_p_a2_a4 + pi_p_a2_a7 + pi_p_a2_a8
      - pi_d_a0_a2_proc_2 - pi_d_a0_a2_proc_0 + pi_d_a2_a0_proc_2
      + pi_d_a2_a0_proc_0 - pi_d_a1_a2_proc_2 - pi_d_a1_a2_proc_0
      - pi_d_a1_a2_proc_1 + pi_d_a2_a1_proc_2 + pi_d_a2_a1_proc_0
      + pi_d_a2_a1_proc_1 + pi_d_a2_a3_proc_2 + pi_d_a2_a3_proc_0
      - pi_d_a3_a2_proc_2 - pi_d_a3_a2_proc_0 + pi_d_a2_a4_proc_0
      - pi_d_a4_a2_proc_0 + pi_d_a2_a5_proc_2 + pi_d_a2_a5_proc_1
      - pi_d_a5_a2_proc_2 - pi_d_a5_a2_proc_1 + pi_d_a2_a6_proc_0
      - pi_d_a6_a2_proc_0 + pi_d_a2_a7_proc_2 + pi_d_a2_a7_proc_0
      + pi_d_a2_a7_proc_1 - pi_d_a7_a2_proc_2 - pi_d_a7_a2_proc_0
      - pi_d_a7_a2_proc_1 + pi_d_a2_a8_proc_0 + pi_d_a2_a8_proc_1
      - pi_d_a8_a2_proc_0 - pi_d_a8_a2_proc_1 + pi_d_a2_a9_proc_2
      + pi_d_a2_a9_proc_0 - pi_d_a9_a2_proc_2 - pi_d_a9_a2_proc_0 >= 0
 c11: 761 pi_p_a2_a4 + 761 pi_p_a2_a7 + 761 pi_p_a2_a8 + 761 pi_d_a2_a0_proc_0
      + 761 pi_d_a2_a1_proc_0 + 761 pi_d_a2_a3_proc_0 + 761 pi_d_a2_a4_proc_0
      + 761 pi_d_a2_a6_proc_0 + 761 pi_d_a2_a7_proc_0 + 761 pi_d_a2_a8_proc_0
      + 761 pi_d_a2_a9_proc_0 + pi_y1_a2 + pi_y2_a2_proc_0 >= 0
 c12: 1202 pi_p_a2_a4 + 1202 pi_p_a2_a7 + 1202 pi_p_a2_a8
      + 1202 pi_d_a2_a1_proc_1 + 1202 pi_d_a2_a5_proc_1 + 1202 pi_d_a2_a7_proc_1
      + 1202 pi_d_a2_a8_proc_1 + pi_y1_a2 + pi_y2_a2_proc_1 >= 0
 c13: 886 pi_p_a2_a4 + 886 pi_p_a2_a7 + 886 pi_p_a2_a8 + 886 pi_d_a2_a0_proc_2
      + 886 pi_d_a2_a1_proc_2 + 886 pi_d_a2_a3_proc_2 + 886 pi_d_a2_a5_proc_2
      + 886 pi_d_a2_a7_proc_2 + 886 pi_d_a2_a9_proc_2 + pi_y1_a2
      + pi_y2_a2_proc_2 >= 0
 c14: pi_p_a3_a2 - pi_p_a5_a3 - pi_d_a0_a3_proc_2 - pi_d_a0_a3_proc_0
      + pi_d_a3_a0_proc_2 + pi_d_a3_a0_proc_0 - pi_d_a1_a3_proc_2
      - pi_d_a1_a3_proc_0 + pi_d_a3_a1_proc_2 + pi_d_a3_a1_proc_0
      - pi_d_a2_a3_proc_2 - pi_d_a2_a3_proc_0 + pi_d_a3_a2_proc_2
      + pi_d_a3_a2_proc_0 + pi_d_a3_a4_proc_0 - pi_d_a4_a3_proc_0
      + pi_d_a3_a5_proc_2 - pi_d_a5_a3_proc_2 + pi_d_a3_a6_proc_0
      - pi_d_a6_a3_proc_0 + pi_d_a3_a7_proc_2 + pi_d_a3_a7_proc_0
      - pi_d_a7_a3_proc_2 - pi_d_a7_a3_proc_0 + pi_d_a3_a8_proc_0
      - pi_d_a8_a3_proc_0 + pi_d_a3_a9_proc_2 + pi_d_a3_a9_proc_0
      - pi_d_a9_a3_proc_2 - pi_d_a9_a3_proc_0 >= 0
 c15: 1184 pi_p_a3_a2 + 1184 pi_d_a3_a0_proc_0 + 1184 pi_d_a3_a1_proc_0
      + 1184 pi_d_a3_a2_proc_0 + 1184 pi_d_a3_a4_proc_0 + 1184 pi_d_a3_a6_proc_0
      + 1184 pi_d_a3_a7_proc_0 + 1184 pi_d_a3_a8_proc_0 + 1184 pi_d_a3_a9_proc_0
      + pi_y1_a3 + pi_y2_a3_proc_0 >= 0
 c16: 710 pi_p_a3_a2 + 710 pi_d_a3_a0_proc_2 + 710 pi_d_a3_a1_proc_2
      + 710 pi_d_a3_a2_proc_2 + 710 pi_d_a3_a5_proc_2 + 710 pi_d_a3_a7_proc_2
      + 710 pi_d_a3_a9_proc_2 + pi_y1_a3 + pi_y2_a3_proc_2 >= 0
 c17: - pi_p_a2_a4 + pi_p_a4_a8 + pi_p_a4_a7 - pi_d_a0_a4_proc_0
      + pi_d_a4_a0_proc_0 - pi_d_a1_a4_proc_0 + pi_d_a4_a1_proc_0
      - pi_d_a2_a4_proc_0 + pi_d_a4_a2_proc_0 - pi_d_a3_a4_proc_0
      + pi_d_a4_a3_proc_0 + pi_d_a4_a6_proc_0 - pi_d_a6_a4_proc_0
      + pi_d_a4_a7_proc_0 - pi_d_a7_a4_proc_0 + pi_d_a4_a8_proc_0
      - pi_d_a8_a4_proc_0 + pi_d_a4_a9_proc_0 - pi_d_a9_a4_proc_0 >= 0
 c18: 671 pi_p_a4_a8 + 671 pi_p_a4_a7 + 671 pi_d_a4_a0_proc_0
      + 671 pi_d_a4_a1_proc_0 + 671 pi_d_a4_a2_proc_0 + 671 pi_d_a4_a3_proc_0
      + 671 pi_d_a4_a6_proc_0 + 671 pi_d_a4_a7_proc_0 + 671 pi_d_a4_a8_proc_0
      + 671 pi_d_a4_a9_proc_0 + pi_y1_a4 + pi_y2_a4_proc_0 >= 0
 c19: pi_p_a5_a3 - pi_p_a6_a5 - pi_p_a0_a5 - pi_d_a0_a5_proc_2
      + pi_d_a5_a0_proc_2 - pi_d_a1_a5_proc_2 - pi_d_a1_a5_proc_1
      + pi_d_a5_a1_proc_2 + pi_d_a5_a1_proc_1 - pi_d_a2_a5_proc_2
      - pi_d_a2_a5_proc_1 + pi_d_a5_a2_proc_2 + pi_d_a5_a2_proc_1
      - pi_d_a3_a5_proc_2 + pi_d_a5_a3_proc_2 + pi_d_a5_a7_proc_2
      + pi_d_a5_a7_proc_1 - pi_d_a7_a5_proc_2 - pi_d_a7_a5_proc_1
      + pi_d_a5_a8_proc_1 - pi_d_a8_a5_proc_1 + pi_d_a5_a9_proc_2
      - pi_d_a9_a5_proc_2 >= 0
 c20: 1117 pi_p_a5_a3 + 1117 pi_d_a5_a1_proc_1 + 1117 pi_d_a5_a2_proc_1
      + 1117 pi_d_a5_a7_proc_1 + 1117 pi_d_a5_a8_proc_1 + pi_y1_a5
      + pi_y2_a5_proc_1 >= 0
 c21: 897 pi_p_a5_a3 + 897 pi_d_a5_a0_proc_2 + 897 pi_d_a5_a1_proc_2
      + 897 pi_d_a5_a2_proc_2 + 897 pi_d_a5_a3_proc_2 + 897 pi_d_a5_a7_proc_2
      + 897 pi_d_a5_a9_proc_2 + pi_y1_a5 + pi_y2_a5_proc_2 >= 0
 c22: pi_p_a6_a5 - pi_p_a9_a6 + pi_p_a6_a8 - pi_d_a0_a6_proc_0
      + pi_d_a6_a0_proc_0 - pi_d_a1_a6_proc_0 + pi_d_a6_a1_proc_0
      - pi_d_a2_a6_proc_0 + pi_d_a6_a2_proc_0 - pi_d_a3_a6_proc_0
      + pi_d_a6_a3_proc_0 - pi_d_a4_a6_proc_0 + pi_d_a6_a4_proc_0
      + pi_d_a6_a7_proc_0 - pi_d_a7_a6_proc_0 + pi_d_a6_a8_proc_0
      - pi_d_a8_a6_proc_0 + pi_d_a6_a9_proc_0 - pi_d_a9_a6_proc_0 >= 0
 c23: 1153 pi_p_a6_a5 + 1153 pi_p_a6_a8 + 1153 pi_d_a6_a0_proc_0
      + 1153 pi_d_a6_a1_proc_0 + 1153 pi_d_a6_a2_proc_0 + 1153 pi_d_a6_a3_proc_0
      + 1153 pi_d_a6_a4_proc_0 + 1153 pi_d_a6_a7_proc_0 + 1153 pi_d_a6_a8_proc_0
      + 1153 pi_d_a6_a9_proc_0 + pi_y1_a6 + pi_y2_a6_proc_0 >= 0
 c24: - pi_p_a2_a7 + pi_p_a7_a9 - pi_p_a4_a7 - pi_d_a0_a7_proc_2
      - pi_d_a0_a7_proc_0 + pi_d_a7_a0_proc_2 + pi_d_a7_a0_proc_0
      - pi_d_a1_a7_proc_2 - pi_d_a1_a7_proc_0 - pi_d_a1_a7_proc_1
      + pi_d_a7_a1_proc_2 + pi_d_a7_a1_proc_0 + pi_d_a7_a1_proc_1
      - pi_d_a2_a7_proc_2 - pi_d_a2_a7_proc_0 - pi_d_a2_a7_proc_1
      + pi_d_a7_a2_proc_2 + pi_d_a7_a2_proc_0 + pi_d_a7_a2_proc_1
      - pi_d_a3_a7_proc_2 - pi_d_a3_a7_proc_0 + pi_d_a7_a3_proc_2
      + pi_d_a7_a3_proc_0 - pi_d_a4_a7_proc_0 + pi_d_a7_a4_proc_0
      - pi_d_a5_a7_proc_2 - pi_d_a5_a7_proc_1 + pi_d_a7_a5_proc_2
      + pi_d_a7_a5_proc_1 - pi_d_a6_a7_proc_0 + pi_d_a7_a6_proc_0
      + pi_d_a7_a8_proc_0 + pi_d_a7_a8_proc_1 - pi_d_a8_a7_proc_0
      - pi_d_a8_a7_proc_1 + pi_d_a7_a9_proc_2 + pi_d_a7_a9_proc_0
      - pi_d_a9_a7_proc_2 - pi_d_a9_a7_proc_0 >= 0
 c25: 643 pi_p_a7_a9 + 643 pi_d_a7_a0_proc_0 + 643 pi_d_a7_a1_proc_0
      + 643 pi_d_a7_a2_proc_0 + 643 pi_d_a7_a3_proc_0 + 643 pi_d_a7_a4_proc_0
      + 643 pi_d_a7_a6_proc_0 + 643 pi_d_a7_a8_proc_0 + 643 pi_d_a7_a9_proc_0
      + pi_y1_a7 + pi_y2_a7_proc_0 >= 0
 c26: 1252 pi_p_a7_a9 + 1252 pi_d_a7_a1_proc_1 + 1252 pi_d_a7_a2_proc_1
      + 1252 pi_d_a7_a5_proc_1 + 1252 pi_d_a7_a8_proc_1 + pi_y1_a7
      + pi_y2_a7_proc_1 >= 0
 c27: 1203 pi_p_a7_a9 + 1203 pi_d_a7_a0_proc_2 + 1203 pi_d_a7_a1_proc_2
      + 1203 pi_d_a7_a2_proc_2 + 1203 pi_d_a7_a3_proc_2 + 1203 pi_d_a7_a5_proc_2
      + 1203 pi_d_a7_a9_proc_2 + pi_y1_a7 + pi_y2_a7_proc_2 >= 0
 c28: - pi_p_a2_a8 + pi_p_a8_a1 - pi_p_a6_a8 - pi_p_a4_a8 + pi_p_a8_a9
      - pi_d_a0_a8_proc_0 + pi_d_a8_a0_proc_0 - pi_d_a1_a8_proc_0
      - pi_d_a1_a8_proc_1 + pi_d_a8_a1_proc_0 + pi_d_a8_a1_proc_1
      - pi_d_a2_a8_proc_0 - pi_d_a2_a8_proc_1 + pi_d_a8_a2_proc_0
      + pi_d_a8_a2_proc_1 - pi_d_a3_a8_proc_0 + pi_d_a8_a3_proc_0
      - pi_d_a4_a8_proc_0 + pi_d_a8_a4_proc_0 - pi_d_a5_a8_proc_1
      + pi_d_a8_a5_proc_1 - pi_d_a6_a8_proc_0 + pi_d_a8_a6_proc_0
      - pi_d_a7_a8_proc_0 - pi_d_a7_a8_proc_1 + pi_d_a8_a7_proc_0
      + pi_d_a8_a7_proc_1 + pi_d_a8_a9_proc_0 - pi_d_a9_a8_proc_0 >= 0
 c29: 1119 pi_p_a8_a1 + 1119 pi_p_a8_a9 + 1119 pi_d_a8_a0_proc_0
      + 1119 pi_d_a8_a1_proc_0 + 1119 pi_d_a8_a2_proc_0 + 1119 pi_d_a8_a3_proc_0
      + 1119 pi_d_a8_a4_proc_0 + 1119 pi_d_a8_a6_proc_0 + 1119 pi_d_a8_a7_proc_0
      + 1119 pi_d_a8_a9_proc_0 + pi_y1_a8 + pi_y2_a8_proc_0 >= 0
 c30: 535 pi_p_a8_a1 + 535 pi_p_a8_a9 + 535 pi_d_a8_a1_proc_1
      + 535 pi_d_a8_a2_proc_1 + 535 pi_d_a8_a5_proc_1 + 535 pi_d_a8_a7_proc_1
      + pi_y1_a8 + pi_y2_a8_proc_1 >= 0
 c31: pi_p_a9_a6 - pi_p_a7_a9 - pi_p_a8_a9 - pi_d_a0_a9_proc_2
      - pi_d_a0_a9_proc_0 + pi_d_a9_a0_proc_2 + pi_d_a9_a0_proc_0
      - pi_d_a1_a9_proc_2 - pi_d_a1_a9_proc_0 + pi_d_a9_a1_proc_2
      + pi_d_a9_a1_proc_0 - pi_d_a2_a9_proc_2 - pi_d_a2_a9_proc_0
      + pi_d_a9_a2_proc_2 + pi_d_a9_a2_proc_0 - pi_d_a3_a9_proc_2
      - pi_d_a3_a9_proc_0 + pi_d_a9_a3_proc_2 + pi_d_a9_a3_proc_0
      - pi_d_a4_a9_proc_0 + pi_d_a9_a4_proc_0 - pi_d_a5_a9_proc_2
      + pi_d_a9_a5_proc_2 - pi_d_a6_a9_proc_0 + pi_d_a9_a6_proc_0
      - pi_d_a7_a9_proc_2 - pi_d_a7_a9_proc_0 + pi_d_a9_a7_proc_2
      + pi_d_a9_a7_proc_0 - pi_d_a8_a9_proc_0 + pi_d_a9_a8_proc_0 >= 0
 c32: 745 pi_p_a9_a6 + 745 pi_d_a9_a0_proc_0 + 745 pi_d_a9_a1_proc_0
      + 745 pi_d_a9_a2_proc_0 + 745 pi_d_a9_a3_proc_0 + 745 pi_d_a9_a4_proc_0
      + 745 pi_d_a9_a6_proc_0 + 745 pi_d_a9_a7_proc_0 + 745 pi_d_a9_a8_proc_0
      + pi_y1_a9 + pi_y2_a9_proc_0 >= 0
 c33: 728 pi_p_a9_a6 + 728 pi_d_a9_a0_proc_2 + 728 pi_d_a9_a1_proc_2
      + 728 pi_d_a9_a2_proc_2 + 728 pi_d_a9_a3_proc_2 + 728 pi_d_a9_a5_proc_2
      + 728 pi_d_a9_a7_proc_2 + pi_y1_a9 + pi_y2_a9_proc_2 >= 0

Bounds
       pi_y1_a0 Free
       pi_y1_a1 Free
       pi_y1_a2 Free
       pi_y1_a3 Free
       pi_y1_a4 Free
       pi_y1_a5 Free
       pi_y1_a6 Free
       pi_y1_a7 Free
       pi_y1_a8 Free
       pi_y1_a9 Free
End
